Generated using phonoLAMMPS
1.0
        2.4920489403         0.0000000000         0.0000000000
       -1.2459513702         2.1581776904         0.0000000000
        0.0000000000         0.0000000000        20.0000000000
C 
2
Direct
0.666656183829339   0.333329666213684   0.000000000000000
0.333318149343437   0.666662999554010   0.000000000000000
